@SET SYSNAME 1_labeling_XXXXX

&GLOBAL
 PRINT_LEVEL LOW
 PREFERRED_FFT_LIBRARY FFTW3
 EXTENDED_FFT_LENGTHS FALSE
 PROJECT ${SYSNAME}
 RUN_TYPE ENERGY_FORCE
 WALLTIME _R_WALLTIME_
&END GLOBAL
&FORCE_EVAL
 METHOD QS
 &DFT
  BASIS_SET_FILE_NAME BASIS_MOLOPT
  POTENTIAL_FILE_NAME GTH_POTENTIALS
  WFN_RESTART_FILE_NAME labeling_XXXXX-SCF.wfn
  CHARGE -2
  MULTIPLICITY 1
  &MGRID
   SKIP_LOAD_BALANCE_DISTRIBUTED FALSE
   CUTOFF [Ry] 400.0
  &END MGRID
  &SCF
   MAX_SCF 12
   EPS_SCF 1e-6
   SCF_GUESS RESTART
   &OUTER_SCF
    EPS_SCF 1e-6
    MAX_SCF 10
   &END OUTER_SCF
   &OT
    MINIMIZER DIIS
    N_DIIS 5
   &END OT
   &PRINT
    &RESTART
     FILENAME =labeling_XXXXX-SCF.wfn
     LOG_PRINT_KEY
     BACKUP_COPIES 0
     &EACH
      QS_SCF 0
      JUST_ENERGY 1
     &END EACH
     COMMON_ITERATION_LEVELS 1
     ADD_LAST NUMERIC
    &END RESTART
    &RESTART_HISTORY OFF
    &END RESTART_HISTORY
   &END PRINT
  &END SCF
  &QS
   METHOD GPW
   EPS_DEFAULT 1.0E-10
   EXTRAPOLATION ASPC
   EXTRAPOLATION_ORDER 4
  &END QS
  &XC
   &XC_GRID
    XC_SMOOTH_RHO NN50
    XC_DERIV NN50_SMOOTH
   &END XC_GRID
   &XC_FUNCTIONAL BLYP
   &END XC_FUNCTIONAL
   &VDW_POTENTIAL
    DISPERSION_FUNCTIONAL PAIR_POTENTIAL
    &PAIR_POTENTIAL
     TYPE DFTD3
     #CALCULATE_C9_TERM TRUE
     #REFERENCE_C9_TERM TRUE
     #LONG_RANGE_CORRECTION TRUE
     PARAMETER_FILE_NAME dftd3.dat
     VERBOSE_OUTPUT TRUE
     REFERENCE_FUNCTIONAL BLYP
     R_CUTOFF [angstrom] 15.0
     #EPS_CN 1.0E-6
    &END PAIR_POTENTIAL
   &END VDW_POTENTIAL
  &END XC
 &END DFT
 STRESS_TENSOR DIAGONAL_ANALYTICAL
 &SUBSYS
  &CELL
   ABC [angstrom] _R_CELL_
   ALPHA_BETA_GAMMA [deg] 90.0 90.0 90.0
  &END CELL
  &TOPOLOGY
   COORD_FILE_FORMAT XYZ
   COORD_FILE_NAME labeling_XXXXX.xyz
  &END TOPOLOGY
  &KIND P
   BASIS_SET DZVP-MOLOPT-SR-GTH
   POTENTIAL GTH-BLYP-q5
  &END KIND
  &KIND O
   BASIS_SET DZVP-MOLOPT-SR-GTH
   POTENTIAL GTH-BLYP-q6
  &END KIND
  &KIND N
   BASIS_SET DZVP-MOLOPT-SR-GTH
   POTENTIAL GTH-BLYP-q5
  &END KIND
  &KIND C
   BASIS_SET DZVP-MOLOPT-SR-GTH
   POTENTIAL GTH-BLYP-q4
  &END KIND
  &KIND H
   BASIS_SET DZVP-MOLOPT-SR-GTH
   POTENTIAL GTH-BLYP-q1
  &END KIND
 &END SUBSYS
 &PRINT
  &PROGRAM_RUN_INFO
   FILENAME =${SYSNAME}-Force_Eval.fe
   LOG_PRINT_KEY
   &EACH
    JUST_ENERGY 1
   &END EACH
   ADD_LAST NUMERIC
  &END PROGRAM_RUN_INFO
  &FORCES
   FILENAME =${SYSNAME}-Forces.for
   LOG_PRINT_KEY
   &EACH
    JUST_ENERGY 1
   &END EACH
   ADD_LAST NUMERIC
  &END
  &STRESS_TENSOR
   FILENAME =${SYSNAME}-Stress_Tensor.st
   LOG_PRINT_KEY
   &EACH
    JUST_ENERGY 1
   &END EACH
   ADD_LAST NUMERIC
  &END STRESS_TENSOR
 &END PRINT
&END FORCE_EVAL
