@SET SYSNAME 1_labeling_XXXXX
@SET PATH_TO_DATA /PATH/TO/DATA

&GLOBAL
 PRINT_LEVEL LOW
 PREFERRED_FFT_LIBRARY FFTW3
 EXTENDED_FFT_LENGTHS FALSE
 PROJECT ${SYSNAME}
 RUN_TYPE ENERGY_FORCE
 WALLTIME _WALLTIME_
&END GLOBAL
&FORCE_EVAL
 METHOD QS
 &DFT
  BASIS_SET_FILE_NAME ${PATH_TO_DATA}/GTH_BASIS_SETS
  POTENTIAL_FILE_NAME ${PATH_TO_DATA}/GTH_POTENTIALS
  WFN_RESTART_FILE_NAME labeling_XXXXX-SCF.wfn
  CHARGE 1
  MULTIPLICITY 1
  &MGRID
   SKIP_LOAD_BALANCE_DISTRIBUTED FALSE
   CUTOFF [Ry] 400.0
   REL_CUTOFF [Ry] 40.0
   NGRIDS 4
   COMMENSURATE TRUE
  &END MGRID
  &SCF
   MAX_SCF 12
   EPS_SCF 1e-6
   SCF_GUESS RESTART
   &OUTER_SCF
    EPS_SCF 1e-6
    MAX_SCF 10
   &END OUTER_SCF
   &OT
    PRECONDITIONER FULL_SINGLE_INVERSE
    MINIMIZER DIIS
    N_HISTORY_VEC 7
   &END OT
   &PRINT
    &RESTART
     FILENAME =labeling_XXXXX-SCF.wfn
     LOG_PRINT_KEY
     BACKUP_COPIES 0
     &EACH
      QS_SCF 0
      JUST_ENERGY 1
     &END EACH
     COMMON_ITERATION_LEVELS 1
     ADD_LAST NUMERIC
    &END RESTART
    &RESTART_HISTORY OFF
    &END RESTART_HISTORY
   &END PRINT
  &END SCF
  &QS
   METHOD GPW
   EPS_DEFAULT 1.0E-14
   EXTRAPOLATION ASPC
   EXTRAPOLATION_ORDER 3
  &END QS
  &XC
   DENSITY_CUTOFF 1.0E-10
   GRADIENT_CUTOFF 1.0E-10
   &XC_GRID
    XC_SMOOTH_RHO NN50
    XC_DERIV NN50_SMOOTH
   &END XC_GRID
   &XC_FUNCTIONAL BLYP
   &END XC_FUNCTIONAL
   &VDW_POTENTIAL
    POTENTIAL_TYPE PAIR_POTENTIAL
    &PAIR_POTENTIAL
     R_CUTOFF 12.0
     TYPE DFTD3
     PARAMETER_FILE_NAME ${PATH_TO_DATA}/dftd3.dat
     REFERENCE_FUNCTIONAL BLYP
     VERBOSE_OUTPUT
    &END PAIR_POTENTIAL
   &END VDW_POTENTIAL
  &END XC
  &POISSON
   POISSON_SOLVER PERIODIC
   PERIODIC XYZ
  &END POISSON
 &END DFT
 STRESS_TENSOR ANALYTICAL
 &SUBSYS
  &CELL
   ABC [angstrom] _CELL_
   ALPHA_BETA_GAMMA [deg] 90.0 90.0 90.0
   MULTIPLE_UNIT_CELL 1 1 1
   PERIODIC XYZ
   SYMMETRY ORTHORHOMBIC
  &END CELL
  &TOPOLOGY
   COORD_FILE_FORMAT XYZ
   COORD_FILE_NAME labeling_XXXXX.xyz
  &END TOPOLOGY
  &KIND N
   BASIS_SET TZV2P-GTH
   POTENTIAL GTH-BLYP-q5
  &END KIND
  &KIND C
   BASIS_SET TZV2P-GTH
   POTENTIAL GTH-BLYP-q4
  &END KIND
  &KIND H
   BASIS_SET TZV2P-GTH
   POTENTIAL GTH-BLYP-q1
  &END KIND
  &KIND O
   BASIS_SET TZV2P-GTH
   POTENTIAL GTH-BLYP-q6
  &END KIND
 &END SUBSYS
 &PRINT
  &PROGRAM_RUN_INFO
   FILENAME =${SYSNAME}-Force_Eval.fe
   LOG_PRINT_KEY
   &EACH
    JUST_ENERGY 1
   &END EACH
   ADD_LAST NUMERIC
  &END PROGRAM_RUN_INFO
  &FORCES
   FILENAME =${SYSNAME}-Forces.for
   LOG_PRINT_KEY
   &EACH
    JUST_ENERGY 1
   &END EACH
   ADD_LAST NUMERIC
  &END
  &STRESS_TENSOR
   FILENAME =${SYSNAME}-Stress_Tensor.st
   LOG_PRINT_KEY
   &EACH
    JUST_ENERGY 1
   &END EACH
   ADD_LAST NUMERIC
  &END STRESS_TENSOR
 &END PRINT
&END FORCE_EVAL